(declare-const X String)
; fromMinixmlldap\x3A\x2F\x2F\x2Fbonzibuddy\x2Ftoolbar_domain_redirectUser-Agent\x3A
(assert (str.in_re X (str.to_re "fromMinixmlldap:///bonzibuddy/toolbar_domain_redirectUser-Agent:\u{a}")))
; FTP.*www\x2Ewordiq\x2Ecom
(assert (str.in_re X (re.++ (str.to_re "FTP") (re.* re.allchar) (str.to_re "www.wordiq.com\u{1b}\u{a}"))))
; EFError.*Host\x3A\swww\x2emalware-stopper\x2ecom
(assert (str.in_re X (re.++ (str.to_re "EFError") (re.* re.allchar) (str.to_re "Host:") (re.union (str.to_re " ") (str.to_re "\u{9}") (str.to_re "\u{a}") (str.to_re "\u{c}") (str.to_re "\u{d}")) (str.to_re "www.malware-stopper.com\u{a}"))))
; \sKeylogging\s+ApofisToolbar
(assert (not (str.in_re X (re.++ (re.union (str.to_re " ") (str.to_re "\u{9}") (str.to_re "\u{a}") (str.to_re "\u{c}") (str.to_re "\u{d}")) (str.to_re "Keylogging\u{13}") (re.+ (re.union (str.to_re " ") (str.to_re "\u{9}") (str.to_re "\u{a}") (str.to_re "\u{c}") (str.to_re "\u{d}"))) (str.to_re "ApofisToolbar\u{a}")))))
; /filename=[^\n]*\x2ebak/i
(assert (str.in_re X (re.++ (str.to_re "/filename=") (re.* (re.comp (str.to_re "\u{a}"))) (str.to_re ".bak/i\u{a}"))))
(check-sat)

(exit)
